/*********************************************
 * OPL 12.6.0.0 Data
 * Author: Adrian Rodriguez Bazaga, Pau Rodriguez Esmerats
 * Creation Date: 09/12/2017 at 16:38:14
 *********************************************/

maxConsec=3;
maxPresence=8;
maxHours=5;
minHours=2;
hours=12;
demand= [716 925 918 276 704 930 880 258 30 34 19 19  ];
nNurses=1600;
